g9 9 1 0 5 20190616 0 4 0 4	# problem tp117r1
 15 5 1 0 0	# vars, constraints, objectives, ranges, eqns
 5 1	# nonlinear constraints, objectives
 0 0	# network constraints: nonlinear, linear
 5 5 5	# nonlinear vars in constraints, objectives, both
 0 0 0 1	# linear network variables; functions; arith, flags
 0 0 0 0 0	# discrete variables: binary, integer, nonlinear (b,c,o)
 62 15	# nonzeros in Jacobian, gradients
 0 0	# max name lengths: constraints, variables
 0 0 0 5 37	# common exprs: b,c,o,c1,o1
b
2 0.1
2 0.3
2 0.3
2 0.2
2 0.1
2 0
2 0
2 1
2 0
2 1
2 1
2 0
2 0
2 0.09
2 0
x15
0 0.1
1 0.3
2 0.3
3 0.2
4 0.1
5 0.001
6 0.001
7 1
8 0.001
9 1
10 1
11 60
12 0.001
13 0.09
14 0.001
r
2 15
2 27
2 36
2 18
2 12
V15 0 1
o2
n12
o5
v0
n2
C0
v15
V16 0 2
o2
n24
o5
v1
n2
C1
v16
V17 0 3
o2
n30
o5
v2
n2
C2
v17
V18 0 4
o2
n18
o5
v3
n2
C3
v18
V19 0 5
o2
n6
o5
v4
n2
C4
v19
V20 0 6
o2
o2
n30
v0
v0
V21 0 6
o2
o2
n-20
v0
v1
V22 0 6
o2
o2
n-10
v0
v2
V23 0 6
o2
o2
n32
v0
v3
V24 0 6
o2
o2
n-10
v0
v4
V25 0 6
o2
n4
o5
v0
n3
V26 0 6
o0
v20
o2
o2
n-20
v1
v0
V27 0 6
o0
v21
o2
o2
n39
v1
v1
V28 0 6
o0
v22
o2
o2
n-6
v1
v2
V29 0 6
o0
v23
o2
o2
n-31
v1
v3
V30 0 6
o0
v24
o2
o2
n32
v1
v4
V31 0 6
o0
v25
o2
n8
o5
v1
n3
V32 0 6
o0
v26
o2
o2
n-10
v2
v0
V33 0 6
o0
v27
o2
o2
n-6
v2
v1
V34 0 6
o0
v28
o2
o2
n10
v2
v2
V35 0 6
o0
v29
o2
o2
n-6
v2
v3
V36 0 6
o0
v30
o2
o2
n-10
v2
v4
V37 0 6
o0
v31
o2
n10
o5
v2
n3
V38 0 6
o0
v32
o2
o2
n32
v3
v0
V39 0 6
o0
v33
o2
o2
n-31
v3
v1
V40 0 6
o0
v34
o2
o2
n-6
v3
v2
V41 0 6
o0
v35
o2
o2
n39
v3
v3
V42 0 6
o0
v36
o2
o2
n-20
v3
v4
V43 0 6
o0
v37
o2
n6
o5
v3
n3
V44 0 6
o0
v38
o2
o2
n-10
v4
v0
V45 0 6
o0
v39
o2
o2
n32
v4
v1
V46 0 6
o0
v40
o2
o2
n-10
v4
v2
V47 0 6
o0
v41
o2
o2
n-20
v4
v3
V48 0 6
o0
v42
o2
o2
n30
v4
v4
V49 0 6
o0
v43
o2
n2
o5
v4
n3
V50 0 6
v44
V51 0 6
o0
v50
v45
V52 0 6
o0
v51
v46
V53 0 6
o0
v52
v47
V54 0 6
o0
v53
v48
V55 0 6
o0
v54
o2
n2
v49
V56 0 6
v55
O0 0
v56
k14
5
10
15
20
25
28
31
33
36
40
42
47
52
57
J0 12
0 60
1 -40
2 -20
3 64
4 -20
5 16
7 3.5
10 -2
11 1
12 1
13 -1
14 -1
J1 13
0 -40
1 78
2 -12
3 -62
4 64
5 -2
6 2
8 2
9 9
11 1
12 2
13 -2
14 -1
J2 12
0 -20
1 -12
2 20
3 -12
4 -20
7 -2
9 2
10 4
11 1
12 3
13 -3
14 -1
J3 13
0 64
1 -62
2 -12
3 78
4 -40
5 -1
6 -0.4
8 4
9 -1
11 1
12 2
13 -4
14 -1
J4 12
0 -20
1 64
2 -20
3 -40
4 60
6 -2
8 1
9 2.8
11 1
12 1
13 -5
14 -1
G0 15
0 0
1 0
2 0
3 0
4 0
5 40
6 2
7 0.25
8 4
9 4
10 1
11 40
12 60
13 -5
14 -1
